c FILE /home/rafael/Documents/HappySet/MIHS/inputs/happygen/output/graph_scale_free_k5_p0.2_v100_20241127_083838.txt
c SOURCE This is a scale-free graph formed for the happy graph colouring problem.
c DESCRIPTION It was generated using the problem generator of Rhyd Lewis
c
c GRAPH STATS
c Seed                             = -680936443
c Number of Nodes                  = 100
c Number of colours k              = 5
c Number of pre-assignments        = 20
c Number of links per new node     = 5
c Density                          = 0.0979798
c 
c The degrees of nodes 1 to 100, respectively, are as follows 
c [34, 33, 32, 27, 23, 22, 21, 21, 20, 19, 19, 19, 16, 16, 15, 15, 15, 14, 14, 13, 12, 12, 12, 12, 12, 11, 
c  11, 10, 10, 10, 10, 9, 9, 9, 9, 9, 9, 9, 8, 8, 8, 8, 8, 8, 8, 8, 7, 7, 7, 7, 7, 
c  7, 7, 7, 7, 7, 7, 7, 7, 7, 6, 6, 6, 6, 6, 6, 6, 6, 6, 6, 6, 6, 6, 6, 6, 5, 
c  5, 5, 5, 5, 5, 5, 5, 5, 5, 5, 5, 5, 5, 5, 5, 5, 5, 5, 5, 5, 5, 5, 5, 5] 
c  
p edge 100 485 5
e 1 2
e 1 3
e 1 4
e 1 5
e 1 6
e 1 7
e 1 8
e 1 9
e 1 10
e 1 11
e 1 12
e 1 13
e 1 14
e 1 15
e 1 17
e 1 19
e 1 20
e 1 28
e 1 33
e 1 35
e 1 36
e 1 38
e 1 39
e 1 50
e 1 53
e 1 63
e 1 68
e 1 71
e 1 77
e 1 78
e 1 89
e 1 92
e 1 93
e 1 99
e 2 3
e 2 4
e 2 5
e 2 6
e 2 7
e 2 8
e 2 9
e 2 13
e 2 14
e 2 15
e 2 20
e 2 22
e 2 23
e 2 29
e 2 30
e 2 32
e 2 33
e 2 38
e 2 42
e 2 44
e 2 50
e 2 51
e 2 53
e 2 64
e 2 67
e 2 76
e 2 82
e 2 88
e 2 91
e 2 94
e 2 95
e 2 99
e 3 4
e 3 5
e 3 6
e 3 7
e 3 8
e 3 10
e 3 11
e 3 13
e 3 15
e 3 16
e 3 22
e 3 25
e 3 28
e 3 31
e 3 33
e 3 37
e 3 40
e 3 47
e 3 50
e 3 52
e 3 56
e 3 58
e 3 59
e 3 61
e 3 71
e 3 76
e 3 77
e 3 78
e 3 90
e 3 100
e 4 5
e 4 6
e 4 7
e 4 13
e 4 14
e 4 15
e 4 16
e 4 18
e 4 27
e 4 29
e 4 32
e 4 34
e 4 40
e 4 42
e 4 47
e 4 48
e 4 49
e 4 67
e 4 76
e 4 77
e 4 79
e 4 81
e 4 88
e 4 97
e 5 6
e 5 7
e 5 9
e 5 13
e 5 15
e 5 18
e 5 19
e 5 21
e 5 28
e 5 29
e 5 34
e 5 37
e 5 43
e 5 45
e 5 48
e 5 65
e 5 68
e 5 85
e 5 90
e 6 10
e 6 11
e 6 12
e 6 20
e 6 22
e 6 26
e 6 30
e 6 43
e 6 51
e 6 59
e 6 66
e 6 69
e 6 72
e 6 78
e 6 79
e 6 86
e 6 100
e 7 8
e 7 10
e 7 11
e 7 18
e 7 19
e 7 23
e 7 32
e 7 33
e 7 41
e 7 65
e 7 79
e 7 82
e 7 85
e 7 87
e 7 90
e 7 95
e 8 10
e 8 14
e 8 17
e 8 18
e 8 24
e 8 27
e 8 37
e 8 38
e 8 44
e 8 47
e 8 63
e 8 66
e 8 72
e 8 78
e 8 81
e 8 82
e 8 96
e 9 14
e 9 15
e 9 18
e 9 21
e 9 22
e 9 26
e 9 27
e 9 31
e 9 34
e 9 35
e 9 36
e 9 62
e 9 66
e 9 71
e 9 77
e 9 84
e 9 88
e 10 12
e 10 20
e 10 25
e 10 32
e 10 39
e 10 40
e 10 41
e 10 50
e 10 51
e 10 55
e 10 58
e 10 63
e 10 93
e 10 94
e 11 14
e 11 24
e 11 26
e 11 29
e 11 30
e 11 31
e 11 34
e 11 35
e 11 36
e 11 43
e 11 55
e 11 62
e 11 79
e 11 80
e 11 92
e 12 21
e 12 28
e 12 32
e 12 33
e 12 38
e 12 40
e 12 45
e 12 48
e 12 49
e 12 52
e 12 59
e 12 61
e 12 62
e 12 70
e 12 81
e 12 86
e 13 14
e 13 16
e 13 17
e 13 34
e 13 46
e 13 66
e 13 73
e 13 74
e 13 76
e 13 97
e 13 99
e 14 15
e 14 19
e 14 28
e 14 36
e 14 38
e 14 51
e 14 56
e 14 61
e 14 97
e 15 16
e 15 20
e 15 30
e 15 32
e 15 41
e 15 48
e 15 64
e 15 83
e 16 18
e 16 26
e 16 39
e 16 53
e 16 58
e 16 61
e 16 74
e 16 80
e 16 84
e 16 87
e 16 96
e 17 19
e 17 24
e 17 27
e 17 49
e 17 52
e 17 53
e 17 54
e 17 57
e 17 64
e 17 67
e 17 75
e 17 98
e 18 28
e 18 37
e 18 40
e 18 45
e 18 47
e 18 63
e 18 83
e 18 97
e 19 23
e 19 46
e 19 49
e 19 57
e 19 60
e 19 61
e 19 70
e 19 83
e 19 91
e 20 29
e 20 31
e 20 39
e 20 44
e 20 53
e 20 54
e 20 74
e 20 94
e 21 24
e 21 29
e 21 31
e 21 35
e 21 39
e 21 43
e 21 51
e 21 87
e 21 93
e 22 33
e 22 37
e 22 56
e 22 61
e 22 62
e 22 76
e 22 81
e 22 88
e 23 24
e 23 28
e 23 33
e 23 54
e 23 56
e 23 65
e 23 67
e 23 87
e 23 91
e 24 35
e 24 43
e 24 58
e 24 65
e 24 69
e 24 84
e 24 98
e 25 30
e 25 32
e 25 45
e 25 48
e 25 54
e 25 80
e 25 88
e 25 90
e 25 93
e 25 99
e 26 32
e 26 36
e 26 47
e 26 57
e 26 68
e 26 75
e 26 91
e 27 40
e 27 42
e 27 52
e 27 68
e 27 73
e 27 89
e 27 96
e 28 46
e 28 57
e 28 73
e 29 30
e 29 44
e 29 55
e 29 91
e 30 31
e 30 35
e 30 41
e 30 66
e 31 59
e 31 63
e 31 70
e 31 73
e 32 41
e 33 52
e 33 69
e 34 45
e 34 59
e 34 62
e 34 83
e 35 49
e 35 58
e 35 81
e 36 64
e 36 69
e 36 77
e 36 82
e 37 67
e 37 75
e 37 79
e 37 99
e 38 60
e 38 69
e 38 85
e 38 98
e 39 50
e 39 80
e 39 100
e 40 65
e 40 86
e 41 64
e 41 72
e 41 78
e 42 54
e 42 56
e 42 62
e 42 65
e 42 86
e 43 80
e 43 82
e 43 86
e 44 56
e 44 70
e 44 89
e 44 95
e 45 83
e 45 92
e 45 95
e 46 53
e 46 57
e 46 60
e 46 70
e 46 89
e 47 85
e 47 100
e 48 63
e 48 100
e 49 92
e 49 95
e 50 55
e 50 87
e 51 73
e 51 94
e 52 68
e 52 71
e 53 72
e 54 55
e 54 57
e 55 85
e 55 92
e 56 84
e 57 90
e 58 60
e 58 98
e 59 74
e 59 84
e 60 67
e 60 74
e 60 96
e 64 97
e 66 71
e 68 72
e 69 93
e 70 89
e 71 75
e 72 96
e 73 75
e 74 94
e 75 98
n 10 2
n 14 1
n 16 2
n 21 5
n 29 5
n 31 5
n 33 4
n 34 4
n 36 1
n 58 2
n 60 2
n 65 3
n 76 4
n 81 4
n 82 1
n 83 4
n 89 3
n 91 5
n 97 1
n 99 2
